34
100
70	2
69	1
68	2
66	2
65	2
64	1
63	3
60	1
58	1
57	1
56	1
53	3
52	1
51	2
50	1
49	1
48	1
47	1
46	2
45	2
44	1
43	2
41	1
36	1
35	1
34	1
32	3
29	1
28	1
26	1
25	1
24	1
22	2
21	2
